47,32,41,6,21,44,36,14,17,48,33,1,14,18,1,46,27,14,30,25,5,36,38,6,15,30,31,0,41,13,3,2,30,12,23,20,24,21,48,2,19,13,16,21,24,24,34,33,9,31,22,18,11,15,27,33,18,35,41,30,44,27,13,7,48,5,33,22,36,19,19,9,12,12,18,21,46,2,42,9,46,44,0,45,1,4,47,2,45,47,14,8,1,38,41,35,41,26,22,12